
  22   10
  10   10   10   10   10   10   10   10   10   10

   0   0   0   0   0   0   0   0   0   0   0   4 2 6 8 9 
   4  10  10  10  10  10  10  10  10  10  10   2 5 3 
   8  10  10  10  10  10  10  10  10  10  10   2 16 4 
   9  10  10  10  10  10  10  10  10  10  10   3 12 10 7 
   9  10  10  10  10  10  10  10  10  10  10   3 16 13 11 
   7  10  10  10  10  10  10  10  10  10  10   2 10 7 
   5  10  10  10  10  10  10  10  10  10  10   5 20 17 15 14 13 
   1  10  10  10  10  10  10  10  10  10  10   2 15 10 
   3  10  10  10  10  10  10  10  10  10  10   1 11 
   3  10  10  10  10  10  10  10  10  10  10   3 20 14 13 
   7  10  10  10  10  10  10  10  10  10  10   1 12 
   1  10  10  10  10  10  10  10  10  10  10   3 20 17 15 
  10  10  10  10  10  10  10  10  10  10  10   3 21 19 18 
   8  10  10  10  10  10  10  10  10  10  10   3 21 19 18 
   4  10  10  10  10  10  10  10  10  10  10   2 19 18 
   1  10  10  10  10  10  10  10  10  10  10   2 19 18 
   5  10  10  10  10  10  10  10  10  10  10   1 18 
   7  10  10  10  10  10  10  10  10  10  10   1 22
   3  10  10  10  10  10  10  10  10  10  10   1 22
   7  10  10  10  10  10  10  10  10  10  10   1 22
   7  10  10  10  10  10  10  10  10  10  10   1 22
   0   0   0   0   0   0   0   0   0   0   0   0 
